sat
(= |goto_symex::&92;guard#1| true)
(= |goto_symex::&92;guard#2| false)
(= |memory_model::choice_rf_1_5_0_11_T_0| false)
(= |memory_model::choice_rf_1_5_2_5_T_1| false)
(= |memory_model::choice_rf_1_5_3_23_T_2| false)
(= |memory_model::choice_rf_1_5_4_64_T_3| true)
(= |memory_model::choice_rf_2_4_0_11_T_4| false)
(= |memory_model::choice_rf_2_4_1_6_T_5| false)
(= |memory_model::choice_rf_2_4_3_23_T_6| true)
(= |memory_model::choice_rf_2_4_4_64_T_7| false)
(= |memory_model::choice_rf_3_22_0_11_T_8| true)
(= |memory_model::choice_rf_3_22_1_6_T_9| false)
(= |memory_model::choice_rf_3_22_2_5_T_10| false)
(= |memory_model::choice_rf_3_22_4_64_T_11| false)
(= |memory_model::choice_rf_4_63_0_11_T_12| false)
(= |memory_model::choice_rf_4_63_1_6_T_13| false)
(= |memory_model::choice_rf_4_63_2_5_T_14| true)
(= |memory_model::choice_rf_4_63_3_23_T_15| false)
(= |memory_model::choice_rf_0_48_0_9_T_16| false)
(= |memory_model::choice_rf_0_48_0_44_T_17| true)
(= |memory_model::choice_rf_0_53_0_9_T_18| false)
(= |memory_model::choice_rf_0_53_0_44_T_19| false)
(= |memory_model::choice_rf_0_53_0_49_T_20| true)
(= |memory_model::choice_rf_0_58_0_9_T_21| false)
(= |memory_model::choice_rf_0_58_0_44_T_22| false)
(= |memory_model::choice_rf_0_58_0_49_T_23| false)
(= |memory_model::choice_rf_0_58_0_54_T_24| true)
(= |memory_model::choice_rf_1_1_0_22_F_25| true)
(= |memory_model::choice_rf_1_1_2_0_F_26| false)
(= |memory_model::choice_rf_0_62_0_12_F_27| false)
(= |memory_model::choice_rf_0_62_1_4_F_28| false)
(= |memory_model::choice_rf_0_62_2_3_F_29| true)
(= |memory_model::choice_rf_0_62_3_21_F_30| false)
(= |memory_model::choice_rf_0_62_4_62_F_31| false)
(= |memory_model::choice_rf_1_3_0_12_F_32| false)
(= |memory_model::choice_rf_1_3_2_3_F_33| false)
(= |memory_model::choice_rf_1_3_3_21_F_34| true)
(= |memory_model::choice_rf_1_3_4_62_F_35| false)
(= |memory_model::choice_rf_2_2_0_12_F_36| false)
(= |memory_model::choice_rf_2_2_1_4_F_37| true)
(= |memory_model::choice_rf_2_2_3_21_F_38| false)
(= |memory_model::choice_rf_2_2_4_62_F_39| false)
(= |memory_model::choice_rf_3_20_0_12_F_40| false)
(= |memory_model::choice_rf_3_20_1_4_F_41| false)
(= |memory_model::choice_rf_3_20_2_3_F_42| false)
(= |memory_model::choice_rf_3_20_4_62_F_43| true)
(= |memory_model::choice_rf_4_61_0_12_F_44| true)
(= |memory_model::choice_rf_4_61_1_4_F_45| false)
(= |memory_model::choice_rf_4_61_2_3_F_46| false)
(= |memory_model::choice_rf_4_61_3_21_F_47| false)
(= |memory_model::choice_rf_0_80_0_13_F_48| false)
(= |memory_model::choice_rf_0_80_1_2_F_49| true)
(= |memory_model::choice_rf_0_79_0_14_F_50| false)
(= |memory_model::choice_rf_0_79_3_12_F_51| true)
(= |memory_model::choice_rf_0_78_0_15_F_52| false)
(= |memory_model::choice_rf_0_78_4_38_F_53| true)
(= |memory_model::choice_rf_4_22_0_15_F_54| false)
(= |memory_model::choice_rf_0_81_0_16_F_55| false)
(= |memory_model::choice_rf_0_81_4_48_F_56| true)
(= |memory_model::choice_rf_4_46_0_16_F_57| false)
(= |memory_model::choice_rf_4_47_0_17_F_58| true)
(= |memory_model::choice_rf_4_47_1_0_F_59| false)
(= |memory_model::choice_rf_0_64_0_18_F_60| false)
(= |memory_model::choice_rf_0_64_0_63_F_61| true)
(= |memory_model::choice_rf_0_77_0_19_F_62| false)
(= |memory_model::choice_rf_0_84_0_19_F_63| false)
(= |memory_model::choice_rf_0_84_0_83_F_64| true)
(= |memory_model::choice_rf_0_85_0_19_F_65| false)
(= |memory_model::choice_rf_0_85_0_83_F_66| true)
(= |memory_model::choice_rf_0_82_0_23_F_67| false)
(= |memory_model::choice_rf_0_82_2_1_F_68| false)
(= |memory_model::choice_rf_0_82_3_0_F_69| true)
(= |memory_model::choice_rf_0_65_0_24_F_70| false)
(= |memory_model::choice_rf_0_65_3_15_F_71| false)
(= |memory_model::choice_rf_0_65_4_41_F_72| false)
(= |memory_model::choice_rf_0_65_4_60_F_73| true)
(= |memory_model::choice_rf_3_7_0_24_F_74| false)
(= |memory_model::choice_rf_3_7_0_76_F_75| false)
(= |memory_model::choice_rf_3_7_4_41_F_76| true)
(= |memory_model::choice_rf_3_7_4_60_F_77| false)
(= |memory_model::choice_rf_4_29_0_24_F_78| true)
(= |memory_model::choice_rf_4_29_0_76_F_79| false)
(= |memory_model::choice_rf_4_29_3_15_F_80| false)
(= |memory_model::choice_rf_4_49_0_24_F_81| false)
(= |memory_model::choice_rf_4_49_0_76_F_82| false)
(= |memory_model::choice_rf_4_49_3_15_F_83| true)
(= |memory_model::choice_rf_4_49_4_41_F_84| false)
(= |memory_model::choice_rf_4_30_0_25_F_85| false)
(= |memory_model::choice_rf_4_30_3_16_F_86| false)
(= |memory_model::choice_rf_4_31_0_26_F_87| false)
(= |memory_model::choice_rf_4_31_3_17_F_88| false)
(= |memory_model::choice_rf_0_70_0_27_F_89| true)
(= |memory_model::choice_rf_4_7_0_27_F_90| true)
(= |memory_model::choice_rf_4_7_0_73_F_91| false)
(= |memory_model::choice_rf_4_5_0_28_F_92| true)
(= |memory_model::choice_rf_4_2_0_29_F_93| true)
(= |memory_model::choice_rf_3_4_0_30_F_94| true)
(= |memory_model::choice_rf_4_0_0_30_F_95| true)
(= |memory_model::choice_rf_4_0_3_8_F_96| false)
(= |memory_model::choice_rf_4_4_0_31_F_97| true)
(= |memory_model::choice_rf_4_26_0_31_F_98| false)
(= |memory_model::choice_rf_4_26_4_14_F_99| true)
(= |memory_model::choice_rf_4_53_0_31_F_100| false)
(= |memory_model::choice_rf_4_53_4_14_F_101| false)
(= |memory_model::choice_rf_4_53_4_34_F_102| true)
(= |memory_model::choice_rf_0_69_0_32_F_103| false)
(= |memory_model::choice_rf_0_69_4_15_F_104| true)
(= |memory_model::choice_rf_4_6_0_32_F_105| false)
(= |memory_model::choice_rf_4_6_0_72_F_106| false)
(= |memory_model::choice_rf_4_3_0_33_F_107| false)
(= |memory_model::choice_rf_4_1_0_34_F_108| false)
(= |memory_model::choice_rf_3_5_0_35_F_109| false)
(= |memory_model::choice_rf_3_5_4_17_F_110| true)
(= |memory_model::choice_rf_4_9_0_35_F_111| false)
(= |memory_model::choice_rf_4_9_3_10_F_112| false)
(= |memory_model::choice_rf_4_8_0_36_F_113| false)
(= |memory_model::choice_rf_4_27_0_36_F_114| false)
(= |memory_model::choice_rf_4_27_4_16_F_115| true)
(= |memory_model::choice_rf_4_54_0_36_F_116| false)
(= |memory_model::choice_rf_4_54_4_16_F_117| false)
(= |memory_model::choice_rf_4_54_4_36_F_118| true)
(= |memory_model::choice_rf_0_68_0_39_F_119| false)
(= |memory_model::choice_rf_0_68_3_14_F_120| true)
(= |memory_model::choice_rf_0_68_4_20_F_121| false)
(= |memory_model::choice_rf_0_68_4_40_F_122| false)
(= |memory_model::choice_rf_3_2_0_39_F_123| false)
(= |memory_model::choice_rf_3_2_4_20_F_124| false)
(= |memory_model::choice_rf_3_2_4_40_F_125| true)
(= |memory_model::choice_rf_4_11_0_39_F_126| true)
(= |memory_model::choice_rf_4_11_3_14_F_127| false)
(= |memory_model::choice_rf_4_24_0_39_F_128| false)
(= |memory_model::choice_rf_4_24_3_14_F_129| false)
(= |memory_model::choice_rf_4_24_4_20_F_130| true)
(= |memory_model::choice_rf_4_52_0_39_F_131| false)
(= |memory_model::choice_rf_4_52_3_14_F_132| true)
(= |memory_model::choice_rf_4_52_4_20_F_133| false)
(= |memory_model::choice_rf_4_52_4_40_F_134| false)
(= |memory_model::choice_rf_0_71_0_40_F_135| false)
(= |memory_model::choice_rf_0_71_3_11_F_136| false)
(= |memory_model::choice_rf_0_71_4_18_F_137| false)
(= |memory_model::choice_rf_0_71_4_37_F_138| false)
(= |memory_model::choice_rf_0_71_4_59_F_139| true)
(= |memory_model::choice_rf_3_6_0_40_F_140| false)
(= |memory_model::choice_rf_3_6_0_75_F_141| false)
(= |memory_model::choice_rf_3_6_4_18_F_142| false)
(= |memory_model::choice_rf_3_6_4_37_F_143| true)
(= |memory_model::choice_rf_3_6_4_59_F_144| false)
(= |memory_model::choice_rf_4_10_0_40_F_145| true)
(= |memory_model::choice_rf_4_10_0_75_F_146| false)
(= |memory_model::choice_rf_4_10_3_11_F_147| false)
(= |memory_model::choice_rf_4_28_0_40_F_148| false)
(= |memory_model::choice_rf_4_28_0_75_F_149| false)
(= |memory_model::choice_rf_4_28_3_11_F_150| false)
(= |memory_model::choice_rf_4_28_4_18_F_151| true)
(= |memory_model::choice_rf_4_55_0_40_F_152| false)
(= |memory_model::choice_rf_4_55_0_75_F_153| false)
(= |memory_model::choice_rf_4_55_3_11_F_154| true)
(= |memory_model::choice_rf_4_55_4_18_F_155| false)
(= |memory_model::choice_rf_4_55_4_37_F_156| false)
(= |memory_model::choice_rf_0_66_0_41_F_157| false)
(= |memory_model::choice_rf_0_66_3_13_F_158| true)
(= |memory_model::choice_rf_0_66_4_21_F_159| false)
(= |memory_model::choice_rf_0_66_4_39_F_160| false)
(= |memory_model::choice_rf_3_1_0_41_F_161| false)
(= |memory_model::choice_rf_3_1_4_21_F_162| false)
(= |memory_model::choice_rf_3_1_4_39_F_163| true)
(= |memory_model::choice_rf_4_23_0_41_F_164| false)
(= |memory_model::choice_rf_4_23_3_13_F_165| false)
(= |memory_model::choice_rf_4_23_4_21_F_166| true)
(= |memory_model::choice_rf_4_50_0_41_F_167| false)
(= |memory_model::choice_rf_4_50_3_13_F_168| true)
(= |memory_model::choice_rf_4_50_4_21_F_169| false)
(= |memory_model::choice_rf_4_50_4_39_F_170| false)
(= |memory_model::choice_rf_0_67_0_42_F_171| false)
(= |memory_model::choice_rf_0_67_3_9_F_172| false)
(= |memory_model::choice_rf_0_67_4_19_F_173| false)
(= |memory_model::choice_rf_0_67_4_35_F_174| false)
(= |memory_model::choice_rf_0_67_4_57_F_175| true)
(= |memory_model::choice_rf_3_3_0_42_F_176| false)
(= |memory_model::choice_rf_3_3_0_74_F_177| false)
(= |memory_model::choice_rf_3_3_4_19_F_178| false)
(= |memory_model::choice_rf_3_3_4_35_F_179| true)
(= |memory_model::choice_rf_3_3_4_57_F_180| false)
(= |memory_model::choice_rf_4_25_0_42_F_181| false)
(= |memory_model::choice_rf_4_25_0_74_F_182| false)
(= |memory_model::choice_rf_4_25_3_9_F_183| false)
(= |memory_model::choice_rf_4_25_4_19_F_184| true)
(= |memory_model::choice_rf_4_51_0_42_F_185| false)
(= |memory_model::choice_rf_4_51_0_74_F_186| false)
(= |memory_model::choice_rf_4_51_3_9_F_187| true)
(= |memory_model::choice_rf_4_51_4_19_F_188| false)
(= |memory_model::choice_rf_4_51_4_35_F_189| false)
(= |memory_model::choice_rf_4_33_0_20_F_190| false)
(= |memory_model::choice_rf_4_33_3_19_F_191| false)
(= |memory_model::choice_rf_4_32_0_21_F_192| false)
(= |memory_model::choice_rf_4_32_3_18_F_193| false)
(= |memory_model::choice_ws-ext_0_11_1_6_T_194| true)
(= |memory_model::choice_ws-ext_0_11_2_5_T_195| true)
(= |memory_model::choice_ws-ext_0_11_3_23_T_196| true)
(= |memory_model::choice_ws-ext_0_11_4_64_T_197| true)
(= |memory_model::choice_ws-ext_1_6_2_5_T_198| false)
(= |memory_model::choice_ws-ext_1_6_3_23_T_199| false)
(= |memory_model::choice_ws-ext_1_6_4_64_T_200| false)
(= |memory_model::choice_ws-ext_2_5_3_23_T_201| false)
(= |memory_model::choice_ws-ext_2_5_4_64_T_202| true)
(= |memory_model::choice_ws-ext_3_23_4_64_T_203| true)
(= |memory_model::choice_ws-ext_0_22_2_0_F_204| true)
(= |memory_model::choice_ws-ext_0_12_1_4_F_205| true)
(= |memory_model::choice_ws-ext_0_12_2_3_F_206| true)
(= |memory_model::choice_ws-ext_0_12_3_21_F_207| true)
(= |memory_model::choice_ws-ext_0_12_4_62_F_208| true)
(= |memory_model::choice_ws-ext_1_4_2_3_F_209| true)
(= |memory_model::choice_ws-ext_1_4_3_21_F_210| false)
(= |memory_model::choice_ws-ext_1_4_4_62_F_211| false)
(= |memory_model::choice_ws-ext_2_3_3_21_F_212| false)
(= |memory_model::choice_ws-ext_2_3_4_62_F_213| false)
(= |memory_model::choice_ws-ext_3_21_4_62_F_214| false)
(= |memory_model::choice_ws-ext_0_13_1_2_F_215| true)
(= |memory_model::choice_ws-ext_0_14_3_12_F_216| true)
(= |memory_model::choice_ws-ext_0_15_4_38_F_217| true)
(= |memory_model::choice_ws-ext_0_16_4_48_F_218| true)
(= |memory_model::choice_ws-ext_0_17_1_0_F_219| true)
(= |memory_model::choice_ws-ext_0_23_2_1_F_220| true)
(= |memory_model::choice_ws-ext_0_23_3_0_F_221| true)
(= |memory_model::choice_ws-ext_2_1_3_0_F_222| true)
(= |memory_model::choice_ws-ext_0_24_3_15_F_223| true)
(= |memory_model::choice_ws-ext_0_24_4_41_F_224| true)
(= |memory_model::choice_ws-ext_0_24_4_60_F_225| true)
(= |memory_model::choice_ws-ext_0_76_3_15_F_226| false)
(= |memory_model::choice_ws-ext_0_76_4_41_F_227| false)
(= |memory_model::choice_ws-ext_0_76_4_60_F_228| false)
(= |memory_model::choice_ws-ext_3_15_4_41_F_229| false)
(= |memory_model::choice_ws-ext_3_15_4_60_F_230| true)
(= |memory_model::choice_ws-ext_0_25_3_16_F_231| true)
(= |memory_model::choice_ws-ext_0_25_4_42_F_232| true)
(= |memory_model::choice_ws-ext_3_16_4_42_F_233| false)
(= |memory_model::choice_ws-ext_0_26_3_17_F_234| true)
(= |memory_model::choice_ws-ext_0_26_4_43_F_235| true)
(= |memory_model::choice_ws-ext_3_17_4_43_F_236| false)
(= |memory_model::choice_ws-ext_0_30_3_8_F_237| true)
(= |memory_model::choice_ws-ext_0_31_4_14_F_238| true)
(= |memory_model::choice_ws-ext_0_31_4_34_F_239| true)
(= |memory_model::choice_ws-ext_0_31_4_56_F_240| true)
(= |memory_model::choice_ws-ext_0_32_4_15_F_241| true)
(= |memory_model::choice_ws-ext_0_72_4_15_F_242| false)
(= |memory_model::choice_ws-ext_0_33_4_13_F_243| true)
(= |memory_model::choice_ws-ext_0_34_4_12_F_244| true)
(= |memory_model::choice_ws-ext_0_35_3_10_F_245| true)
(= |memory_model::choice_ws-ext_0_35_4_17_F_246| true)
(= |memory_model::choice_ws-ext_3_10_4_17_F_247| false)
(= |memory_model::choice_ws-ext_0_36_4_16_F_248| true)
(= |memory_model::choice_ws-ext_0_36_4_36_F_249| true)
(= |memory_model::choice_ws-ext_0_36_4_58_F_250| true)
(= |memory_model::choice_ws-ext_0_39_3_14_F_251| true)
(= |memory_model::choice_ws-ext_0_39_4_20_F_252| true)
(= |memory_model::choice_ws-ext_0_39_4_40_F_253| true)
(= |memory_model::choice_ws-ext_3_14_4_20_F_254| false)
(= |memory_model::choice_ws-ext_3_14_4_40_F_255| false)
(= |memory_model::choice_ws-ext_0_40_3_11_F_256| true)
(= |memory_model::choice_ws-ext_0_40_4_18_F_257| true)
(= |memory_model::choice_ws-ext_0_40_4_37_F_258| true)
(= |memory_model::choice_ws-ext_0_40_4_59_F_259| true)
(= |memory_model::choice_ws-ext_0_75_3_11_F_260| false)
(= |memory_model::choice_ws-ext_0_75_4_18_F_261| false)
(= |memory_model::choice_ws-ext_0_75_4_37_F_262| false)
(= |memory_model::choice_ws-ext_0_75_4_59_F_263| false)
(= |memory_model::choice_ws-ext_3_11_4_18_F_264| false)
(= |memory_model::choice_ws-ext_3_11_4_37_F_265| false)
(= |memory_model::choice_ws-ext_3_11_4_59_F_266| true)
(= |memory_model::choice_ws-ext_0_41_3_13_F_267| true)
(= |memory_model::choice_ws-ext_0_41_4_21_F_268| true)
(= |memory_model::choice_ws-ext_0_41_4_39_F_269| true)
(= |memory_model::choice_ws-ext_3_13_4_21_F_270| false)
(= |memory_model::choice_ws-ext_3_13_4_39_F_271| false)
(= |memory_model::choice_ws-ext_0_42_3_9_F_272| true)
(= |memory_model::choice_ws-ext_0_42_4_19_F_273| true)
(= |memory_model::choice_ws-ext_0_42_4_35_F_274| true)
(= |memory_model::choice_ws-ext_0_42_4_57_F_275| true)
(= |memory_model::choice_ws-ext_0_74_3_9_F_276| false)
(= |memory_model::choice_ws-ext_0_74_4_19_F_277| false)
(= |memory_model::choice_ws-ext_0_74_4_35_F_278| false)
(= |memory_model::choice_ws-ext_0_74_4_57_F_279| false)
(= |memory_model::choice_ws-ext_3_9_4_19_F_280| false)
(= |memory_model::choice_ws-ext_3_9_4_35_F_281| false)
(= |memory_model::choice_ws-ext_3_9_4_57_F_282| true)
(= |memory_model::choice_ws-ext_0_20_3_19_F_283| true)
(= |memory_model::choice_ws-ext_0_20_4_45_F_284| true)
(= |memory_model::choice_ws-ext_3_19_4_45_F_285| false)
(= |memory_model::choice_ws-ext_0_21_3_18_F_286| true)
(= |memory_model::choice_ws-ext_0_21_4_44_F_287| true)
(= |memory_model::choice_ws-ext_3_18_4_44_F_288| false)
(= |main$tmp_guard0#3| #b00000001)
(= |__CPROVER_next_thread_id#3| #b00000000000000000000000000000001)
(= |__CPROVER_next_thread_id#6| #b00000000000000000000000000000010)
(= |__CPROVER_next_thread_id#9| #b00000000000000000000000000000011)
(= |__unbuffered_cnt#2| #b00000000000000000000000000000100)
(= |z$w_buff0_used#2| #b00000000)
(= |z$r_buff0_thd0#2| #b00000000)
(= |z$w_buff0#2| #b00000000000000000000000000000001)
(= |z$w_buff1_used#2| #b00000000)
(= |z$r_buff1_thd0#2| #b00000000)
(= |z$w_buff1#2| #b00000000000000000000000000000000)
(= |z#2| #b00000000000000000000000000000001)
(= |z#4| #b00000000000000000000000000000001)
(= |z$w_buff0_used#6| #b00000000)
(= |z$w_buff1_used#6| #b00000000)
(= |z$r_buff0_thd0#8| #b00000000)
(= |z$r_buff1_thd0#7| #b00000000)
(= |y#2| #b00000000000000000000000000000010)
(= |__unbuffered_p0_EAX#2| #b00000000000000000000000000000000)
(= |__unbuffered_p2_EAX#2| #b00000000000000000000000000000000)
(= |__unbuffered_p3_EAX#2| #b00000000000000000000000000000001)
(= |__unbuffered_p3_EBX#2| #b00000000000000000000000000000000)
(= |main$tmp_guard1#2| #b00000000)
(= |main$tmp_guard1#3| #b10000000)
(= |main$tmp_guard1#6| #b00000000)
(= |pthread_create::1::this_thread_id!1@0#0| #b10000000000000000000000000000000)
(= |x#2| #b00000000000000000000000000000000)
(= |__unbuffered_cnt#4| #b00000000000000000000000000000010)
(= |pthread_create::1::this_thread_id!2@0#0| #b00000000000000000000000000000000)
(= |__unbuffered_cnt#7| #b00000000000000000000000000000011)
(= |pthread_create::1::this_thread_id!3@0#0| #b01000000000000000000000000000000)
(= |nondet_symex::nondet2| #b10000000000000000000000000000000)
(= |nondet_symex::nondet3| #b00000000000000000000000000000000)
(= |z#6| #b00000000000000000000000000000000)
(= |z$w_buff0_used#11| #b00000001)
(= |z$r_buff0_thd3#2| #b00000000)
(= |z$w_buff1_used#9| #b00000000)
(= |z$r_buff1_thd3#2| #b00000000)
(= |z$w_buff0#4| #b00000000000000000000000000000001)
(= |z$w_buff1#4| #b00000000000000000000000000000000)
(= |__unbuffered_cnt#10| #b00000000000000000000000000000001)
(= |pthread_create::1::this_thread_id!4@0#0| #b10000000000000000000000000000000)
(= |z$w_buff0#7| #b00000000000000000000000000000000)
(= |z$w_buff0_used#14| #b00000000)
(= |z$r_buff0_thd0#11| #b00000000)
(= |z$r_buff1_thd0#9| #b00000000)
(= |z$r_buff1_thd0#10| #b10000000)
(= |z$r_buff0_thd1#2| #b00000000)
(= |z$r_buff1_thd1#2| #b00000000)
(= |z$r_buff1_thd1#3| #b10000000)
(= |z$r_buff0_thd2#2| #b00000000)
(= |z$r_buff1_thd2#2| #b00000000)
(= |z$r_buff1_thd2#3| #b10000000)
(= |z$r_buff0_thd3#5| #b00000000)
(= |z$r_buff1_thd3#5| #b00000000)
(= |z$r_buff1_thd3#6| #b10000000)
(= |z$r_buff0_thd4#2| #b00000000)
(= |z$r_buff1_thd4#2| #b00000000)
(= |z$r_buff1_thd4#3| #b10000000)
(= |z$r_buff0_thd4#4| #b00000001)
(= |nondet_symex::nondet5| #b00000000000000000000000000000000)
(= |weak$$choice0#3| #b00000000)
(= |weak$$choice0#4| #b10000000)
(= |nondet_symex::nondet6| #b10000000000000000000000000000000)
(= |weak$$choice2#3| #b00000001)
(= |weak$$choice2#4| #b10000000)
(= |z$flush_delayed#4| #b00000001)
(= |z$flush_delayed#5| #b10000000)
(= |z#10| #b00000000000000000000000000000000)
(= |z$mem_tmp#3| #b00000000000000000000000000000000)
(= |z$mem_tmp#4| #b10000000000000000000000000000000)
(= |z$w_buff0_used#17| #b00000001)
(= |z$r_buff0_thd4#6| #b00000001)
(= |z$w_buff1_used#13| #b00000000)
(= |z$r_buff1_thd4#5| #b00000000)
(= |z$w_buff0#10| #b00000000000000000000000000000001)
(= |z$w_buff1#8| #b00000000000000000000000000000000)
(= |z#13| #b00000000000000000000000000000001)
(= |z$w_buff0#16| #b00000000000000000000000000000001)
(= |z$w_buff1#14| #b00000000000000000000000000000000)
(= |z$w_buff0_used#29| #b00000001)
(= |z$w_buff1_used#21| #b00000000)
(= |z$r_buff0_thd4#28| #b00000001)
(= |z$r_buff1_thd4#15| #b00000000)
(= |__unbuffered_p3_EAX#4| #b00000000000000000000000000000001)
(= |__unbuffered_p3_EAX#5| #b10000000000000000000000000000000)
(= |z#17| #b00000000000000000000000000000000)
(= |z$flush_delayed#8| #b00000000)
(= |a#3| #b00000000000000000000000000000000)
(= |__unbuffered_p3_EBX#4| #b00000000000000000000000000000000)
(= |__unbuffered_p3_EBX#5| #b10000000000000000000000000000000)
(= |z$w_buff0_used#37| #b00000001)
(= |z$r_buff0_thd4#33| #b00000001)
(= |z$w_buff0#18| #b00000000000000000000000000000001)
(= |z$w_buff1_used#25| #b00000000)
(= |z$r_buff1_thd4#17| #b00000000)
(= |z$w_buff1#16| #b00000000000000000000000000000000)
(= |z#19| #b00000000000000000000000000000000)
(= |z#21| #b00000000000000000000000000000001)
(= |z$w_buff0_used#41| #b00000000)
(= |z$w_buff1_used#29| #b00000000)
(= |z$r_buff0_thd4#39| #b00000001)
(= |z$r_buff1_thd4#22| #b00000000)
(= |__unbuffered_cnt#13| #b00000000000000000000000000000000)
(= |__unbuffered_cnt#15| #b00000000000000000000000000000001)
(= |__CPROVER_threads_exited#1$wclk$8| #b00100101)
(= |__CPROVER_threads_exited#2$rclk$8| #b11111101)
(= |__CPROVER_threads_exited#5$wclk$8| #b11011100)
(= |__CPROVER_threads_exited#7$wclk$8| #b11001001)
(= |__CPROVER_threads_exited#9$wclk$8| #b11111001)
(= |__CPROVER_threads_exited#4$rclk$8| #b11011000)
(= |__CPROVER_threads_exited#3$wclk$8| #b11111111)
(= |__CPROVER_threads_exited#6$rclk$8| #b10111000)
(= |__CPROVER_threads_exited#8$rclk$8| #b11111000)
(= |x#1$wclk$8| #b01001010)
(= |x#2$rclk$8| #b10001111)
(= |x#4$wclk$8| #b10100111)
(= |__unbuffered_cnt#6$wclk$8| #b10110111)
(= |__unbuffered_cnt#2$rclk$8| #b10111111)
(= |__unbuffered_cnt#9$wclk$8| #b10111110)
(= |__unbuffered_cnt#12$wclk$8| #b10101111)
(= |__unbuffered_cnt#16$wclk$8| #b10101110)
(= |__unbuffered_cnt#1$wclk$8| #b00100110)
(= |__unbuffered_cnt#4$rclk$8| #b10110111)
(= |__unbuffered_cnt#7$rclk$8| #b10111110)
(= |__unbuffered_cnt#10$rclk$8| #b10101111)
(= |__unbuffered_cnt#13$rclk$8| #b10101110)
(= |__unbuffered_p0_EAX#4$wclk$8| #b10001111)
(= |__unbuffered_p0_EAX#2$rclk$8| #b11110010)
(= |__unbuffered_p2_EAX#4$wclk$8| #b10101100)
(= |__unbuffered_p2_EAX#2$rclk$8| #b11110010)
(= |__unbuffered_p3_EAX#6$wclk$8| #b01111110)
(= |__unbuffered_p3_EAX#2$rclk$8| #b11110010)
(= |__unbuffered_p3_EAX#1$wclk$8| #b01000001)
(= |__unbuffered_p3_EAX#5$rclk$8| #b01111110)
(= |__unbuffered_p3_EBX#6$wclk$8| #b01111111)
(= |__unbuffered_p3_EBX#2$rclk$8| #b11110010)
(= |__unbuffered_p3_EBX#1$wclk$8| #b01000010)
(= |__unbuffered_p3_EBX#5$rclk$8| #b01111111)
(= |a#1$wclk$8| #b01000011)
(= |a#3$rclk$8| #b01111111)
(= |a#2$wclk$8| #b10000111)
(= |main$tmp_guard1#5| #b00000000)
(= |y#4$wclk$8| #b10101000)
(= |y#2$rclk$8| #b11110010)
(= |y#5$wclk$8| #b10101011)
(= |z#9$wclk$8| #b10101100)
(= |z#2$rclk$8| #b11011001)
(= |z#18$wclk$8| #b01111110)
(= |z#22$wclk$8| #b10101101)
(= |z#1$wclk$8| #b01001100)
(= |z#6$rclk$8| #b10101100)
(= |z#5$wclk$8| #b11011001)
(= |z#10$rclk$8| #b01111110)
(= |z#19$rclk$8| #b10101101)
(= |z$flush_delayed#1$wclk$8| #b01001101)
(= |z$flush_delayed#5$rclk$8| #b01111110)
(= |z$flush_delayed#3$wclk$8| #b10101100)
(= |z$mem_tmp#1$wclk$8| #b01001110)
(= |z$mem_tmp#4$rclk$8| #b01111110)
(= |z$mem_tmp#2$wclk$8| #b10101100)
(= |z$r_buff0_thd0#1$wclk$8| #b01001111)
(= |z$r_buff0_thd0#11$rclk$8| #b01110111)
(= |z$r_buff0_thd0#10$wclk$8| #b11011001)
(= |z$r_buff0_thd1#1$wclk$8| #b01010000)
(= |z$r_buff0_thd1#2$rclk$8| #b01110111)
(= |z$r_buff0_thd2#1$wclk$8| #b01010001)
(= |z$r_buff0_thd2#2$rclk$8| #b01110111)
(= |z$r_buff0_thd3#1$wclk$8| #b01010010)
(= |z$r_buff0_thd3#2$rclk$8| #b10101100)
(= |z$r_buff0_thd3#5$rclk$8| #b01110111)
(= |z$r_buff0_thd3#4$wclk$8| #b10101100)
(= |z$r_buff0_thd4#1$wclk$8| #b01010011)
(= |z$r_buff0_thd4#2$rclk$8| #b01110111)
(= |z$r_buff0_thd4#6$rclk$8| #b01111110)
(= |z$r_buff0_thd4#33$rclk$8| #b10101101)
(= |z$r_buff1_thd0#11$wclk$8| #b01110111)
(= |z$r_buff1_thd0#2$rclk$8| #b11011001)
(= |z$r_buff1_thd0#1$wclk$8| #b01010100)
(= |z$r_buff1_thd0#10$rclk$8| #b01110111)
(= |z$r_buff1_thd0#8$wclk$8| #b11011001)
(= |z$r_buff1_thd1#1$wclk$8| #b01010101)
(= |z$r_buff1_thd1#3$rclk$8| #b01110111)
(= |z$r_buff1_thd2#1$wclk$8| #b01010110)
(= |z$r_buff1_thd2#3$rclk$8| #b01110111)
(= |z$r_buff1_thd3#1$wclk$8| #b01010111)
(= |z$r_buff1_thd3#2$rclk$8| #b10101100)
(= |z$r_buff1_thd3#7$wclk$8| #b01110111)
(= |z$r_buff1_thd3#6$rclk$8| #b01110111)
(= |z$r_buff1_thd3#4$wclk$8| #b10101100)
(= |z$r_buff1_thd4#1$wclk$8| #b01011000)
(= |z$r_buff1_thd4#3$rclk$8| #b01110111)
(= |z$r_buff1_thd4#5$rclk$8| #b01111110)
(= |z$r_buff1_thd4#17$rclk$8| #b10101101)
(= |z$w_buff0#6$wclk$8| #b10101100)
(= |z$w_buff0#2$rclk$8| #b11011001)
(= |z$w_buff0#9$wclk$8| #b01110111)
(= |z$w_buff0#17$wclk$8| #b01111110)
(= |z$w_buff0#1$wclk$8| #b01011011)
(= |z$w_buff0#4$rclk$8| #b10101100)
(= |z$w_buff0#7$rclk$8| #b01110111)
(= |z$w_buff0#10$rclk$8| #b01111110)
(= |z$w_buff0#18$rclk$8| #b10101101)
(= |z$w_buff0_used#13$wclk$8| #b10101100)
(= |z$w_buff0_used#2$rclk$8| #b11011001)
(= |z$w_buff0_used#16$wclk$8| #b01110111)
(= |z$w_buff0_used#36$wclk$8| #b01111110)
(= |z$w_buff0_used#45$wclk$8| #b10101101)
(= |z$w_buff0_used#1$wclk$8| #b01011100)
(= |z$w_buff0_used#11$rclk$8| #b10101100)
(= |z$w_buff0_used#10$wclk$8| #b11011001)
(= |z$w_buff0_used#14$rclk$8| #b01110111)
(= |z$w_buff0_used#17$rclk$8| #b01111110)
(= |z$w_buff0_used#37$rclk$8| #b10101101)
(= |z$w_buff1#6$wclk$8| #b10101100)
(= |z$w_buff1#2$rclk$8| #b11011001)
(= |z$w_buff1#7$wclk$8| #b01110111)
(= |z$w_buff1#15$wclk$8| #b01111110)
(= |z$w_buff1#1$wclk$8| #b01011101)
(= |z$w_buff1#4$rclk$8| #b10101100)
(= |z$w_buff1#8$rclk$8| #b01111110)
(= |z$w_buff1#16$rclk$8| #b10101101)
(= |z$w_buff1_used#11$wclk$8| #b10101100)
(= |z$w_buff1_used#2$rclk$8| #b11011001)
(= |z$w_buff1_used#12$wclk$8| #b01110111)
(= |z$w_buff1_used#24$wclk$8| #b01111110)
(= |z$w_buff1_used#31$wclk$8| #b10101101)
(= |z$w_buff1_used#1$wclk$8| #b01011110)
(= |z$w_buff1_used#9$rclk$8| #b10101100)
(= |z$w_buff1_used#8$wclk$8| #b11011001)
(= |z$w_buff1_used#13$rclk$8| #b01111110)
(= |z$w_buff1_used#25$rclk$8| #b10101101)
(= |weak$$choice0#1$wclk$8| #b01001000)
(= |weak$$choice0#4$rclk$8| #b01111110)
(= |weak$$choice0#2$wclk$8| #b10101100)
(= |weak$$choice2#1$wclk$8| #b01001001)
(= |weak$$choice2#4$rclk$8| #b01111110)
(= |weak$$choice2#2$wclk$8| #b10101100)
(= |__unbuffered_p0_EAX#1$wclk$8| #b00100111)
(= |__unbuffered_p2_EAX#1$wclk$8| #b01000000)
(= |y#1$wclk$8| #b01001011)
(= |z$flush_delayed#9$wclk$8| #b01111110)
(= |z$mem_tmp#6$wclk$8| #b01111110)
(= |z$r_buff0_thd4#5$wclk$8| #b01110111)
(= |z$r_buff0_thd4#32$wclk$8| #b01111110)
(= |z$r_buff0_thd4#41$wclk$8| #b10101101)
(= |z$r_buff1_thd1#4$wclk$8| #b01110111)
(= |z$r_buff1_thd2#4$wclk$8| #b01110111)
(= |z$r_buff1_thd4#4$wclk$8| #b01110111)
(= |z$r_buff1_thd4#16$wclk$8| #b01111110)
(= |z$r_buff1_thd4#23$wclk$8| #b10101101)
(= |weak$$choice0#5$wclk$8| #b01111110)
(= |weak$$choice2#12$wclk$8| #b01111110)
(= t1$46$spwnclk$8 #b01100010)
(= t1$51$spwnclk$8 #b01100110)
(= t1$56$spwnclk$8 #b01101010)
(= t1$61$spwnclk$8 #b01110110)
(= |main::1::t536!0@1$wclk$8| #b00000000)
(= |main::1::t537!0@1$wclk$8| #b00000001)
(= |main::1::t538!0@1$wclk$8| #b00000010)
(= |__CPROVER_dead_object#1$wclk$8| #b00000011)
(= |__CPROVER_deallocated#1$wclk$8| #b00000100)
(= |__CPROVER_malloc_is_new_array#1$wclk$8| #b00000101)
(= |__CPROVER_malloc_object#1$wclk$8| #b00000110)
(= |__CPROVER_malloc_size#1$wclk$8| #b00000111)
(= |__CPROVER_memory_leak#1$wclk$8| #b00100010)
(= |__CPROVER_next_thread_id#1$wclk$8| #b00100011)
(= |__CPROVER_pipe_count#1$wclk$8| #b00100100)
(= |main$tmp_guard0#1$wclk$8| #b01000100)
(= |main$tmp_guard1#1$wclk$8| #b01000101)
(= |z$read_delayed#1$wclk$8| #b01011001)
(= |z$read_delayed_var#1$wclk$8| #b01011010)
(= |main::1::t535!0@1#1$wclk$8| #b01011111)
(= |__CPROVER_next_thread_id#2$wclk$8| #b01100000)
(= |main::1::t535!0@1#2$wclk$8| #b01100001)
(= |main::1::t536!0@1#1$wclk$8| #b01100011)
(= |__CPROVER_next_thread_id#3$rclk$8| #b01100100)
(= |__CPROVER_next_thread_id#5$wclk$8| #b01100100)
(= |main::1::t536!0@1#2$wclk$8| #b01100101)
(= |main::1::t537!0@1#1$wclk$8| #b01100111)
(= |__CPROVER_next_thread_id#6$rclk$8| #b01101000)
(= |__CPROVER_next_thread_id#8$wclk$8| #b01101000)
(= |main::1::t537!0@1#2$wclk$8| #b01101001)
(= |main::1::t538!0@1#1$wclk$8| #b01101100)
(= |__CPROVER_next_thread_id#9$rclk$8| #b01110100)
(= |__CPROVER_next_thread_id#11$wclk$8| #b01110100)
(= |main::1::t538!0@1#2$wclk$8| #b01110101)
(= |main$tmp_guard0#2$wclk$8| #b10111111)
(= |main$tmp_guard0#3$rclk$8| #b11011000)
(= |z$r_buff0_thd0#2$rclk$8| #b11011001)
(= |main$tmp_guard1#3$rclk$8| #b11110010)
(= |main$tmp_guard1#4$wclk$8| #b11110010)
(= |main$tmp_guard1#5$rclk$8| #b11110011)
(= |main$tmp_guard1#6$rclk$8| #b11110110)
(= array_of.0 @fun_14)
(= |__CPROVER_threads_exited#2| @fun_9)
(= |__CPROVER_threads_exited#4| @fun_12)
(= |__CPROVER_threads_exited#6| @fun_14)
(= |__CPROVER_threads_exited#8| @fun_15)
(function @fun_14
 (type (Array (_ BitVec 32) (_ BitVec 1)))
 (= (@fun_14 #b00000000000000000000000000000000) #b0)
 (= (@fun_14 #b10000000000000000000000000000000) #b0)
 (= (@fun_14 #b01000000000000000000000000000000) #b0)
 (default #b1))
(function @fun_9
 (type (Array (_ BitVec 32) (_ BitVec 1)))
 (default #b1))
(function @fun_12
 (type (Array (_ BitVec 32) (_ BitVec 1)))
 (= (@fun_12 #b00000000000000000000000000000000) #b0)
 (= (@fun_12 #b10000000000000000000000000000000) #b0)
 (default #b1))
(function @fun_15
 (type (Array (_ BitVec 32) (_ BitVec 1)))
 (= (@fun_15 #b10000000000000000000000000000000) #b0)
 (default #b1))

real	0m0.025s
user	0m0.025s
sys	0m0.000s
State: AC Run_time: 0.027512073516845703